     Program PWSCF v.6.4.1 starts on 20Nov2023 at  9:45:13

     K-points division:     npool     =       6
     R & G space division:  proc/nbgrp/npool/nimage =       8
     Waiting for input...
     Reading input from standard input

     Current dimensions of program PWSCF are:
     Max number of different atomic species (ntypx) = 40
     Max number of k-points (npk) =  40000
     Max angular momentum in pseudopotentials (lmaxx) =  3

     Parameters for DFT-D3 Dispersion Correction:
       Reference C6 values for interpolation:

         atom   Coordination number   C6
         S          0.000           268.01
         S          0.995           261.99
         S          1.990           251.62
         Mo         0.000          1691.79
         Mo         1.942          1004.01
         Mo        11.056           674.22

       Values used:

         atom   Coordination number  R0_AB[au]  C6      C8
         Mo        10.439            3.547    674.22  77634.20
         Mo        10.439            3.547    674.22  77634.20
         S          3.974            3.128    251.62  12327.25
         S          3.974            3.128    251.62  12327.25
         S          3.974            3.128    251.62  12327.25
         S          3.974            3.128    251.62  12327.25

         Molecular C6 ( Ry / a.u.^6 ) =     13294.63

     Message from routine setup:
     DEPRECATED: symmetry with ibrav=0, use correct ibrav instead

     bravais-lattice index     =            0
     lattice parameter (alat)  =       5.9035  a.u.
     unit-cell volume          =     688.5960 (a.u.)^3
     number of atoms/cell      =            6
     number of atomic types    =            2
     number of electrons       =        52.00
     number of Kohn-Sham states=           31
     kinetic-energy cutoff     =      50.0000  Ry
     charge density cutoff     =     400.0000  Ry
     convergence threshold     =      1.0E-06
     mixing beta               =       0.5000
     number of iterations used =            8  plain     mixing
     Exchange-correlation      =  SLA  PW   PBX  PBC ( 1  4  3  4 0 0)
     nstep                     =          200

     celldm(1)=   5.903504  celldm(2)=   0.000000  celldm(3)=   0.000000
     celldm(4)=   0.000000  celldm(5)=   0.000000  celldm(6)=   0.000000

     crystal axes: (cart. coord. in units of alat)
               a(1) = (   1.000000   0.000000   0.000000 )
               a(2) = (  -0.500000   0.866025   0.000000 )
               a(3) = (   0.000000   0.000000   3.864597 )

     reciprocal axes: (cart. coord. in units 2 pi/alat)
               b(1) = (  1.000000  0.577350  0.000000 )
               b(2) = (  0.000000  1.154701  0.000000 )
               b(3) = (  0.000000  0.000000  0.258759 )

     PseudoPot. # 1 for Mo read from file:
     ./Mo_ONCV_PBE-1.0.oncvpsp.upf
     MD5 check sum: 1b5d28e075c9ccadda658a603575cd1f
     Pseudo is Norm-conserving, Zval = 14.0
     Generated using ONCVPSP code by D. R. Hamann
     Using radial grid of 1526 points,  6 beta functions with:
                l(1) =   0
                l(2) =   0
                l(3) =   1
                l(4) =   1
                l(5) =   2
                l(6) =   2

     PseudoPot. # 2 for S  read from file:
     ./s_pbe_v1.4.uspp.F.UPF
     MD5 check sum: 88d86576ff6df21479756cfb9bdac1df
     Pseudo is Ultrasoft + core correction, Zval =  6.0
     Generated by new atomic code, or converted to UPF format
     Using radial grid of  907 points,  6 beta functions with:
                l(1) =   0
                l(2) =   0
                l(3) =   1
                l(4) =   1
                l(5) =   2
                l(6) =   2
     Q(r) pseudized with  8 coefficients,  rinner =    1.300   1.300   1.300
                                                       1.300   1.300

     atomic species   valence    mass     pseudopotential
        Mo            14.00    95.94000     Mo( 1.00)
        S              6.00    32.06000     S ( 1.00)

      8 Sym. Ops., with inversion, found ( 4 have fractional translation)

                                    s                        frac. trans.

      isym =  1     identity

 cryst.   s( 1) = (     1          0          0      )
                  (     0          1          0      )
                  (     0          0          1      )

 cart.    s( 1) = (  1.0000000  0.0000000  0.0000000 )
                  (  0.0000000  1.0000000  0.0000000 )
                  (  0.0000000  0.0000000  1.0000000 )

      isym =  2     180 deg rotation - cart. axis [0,0,1]

 cryst.   s( 2) = (    -1          0          0      )    f =( -0.0000000 )
                  (     0         -1          0      )       ( -0.0000000 )
                  (     0          0          1      )       (  0.5000000 )

 cart.    s( 2) = ( -1.0000000  0.0000000  0.0000000 )    f =( -0.0000000 )
                  (  0.0000000 -1.0000000  0.0000000 )       ( -0.0000000 )
                  (  0.0000000  0.0000000  1.0000000 )       (  1.9322983 )

      isym =  3     180 deg rotation - cryst. axis [1,-1,0]

[...]

      isym =  5     inversion

[...]

      isym =  6     inv. 180 deg rotation - cart. axis [0,0,1]

[...]

      isym =  7     inv. 180 deg rotation - cryst. axis [1,-1,0]

[...]

   Cartesian axes

     site n.     atom                  positions (alat units)
         1           Mo  tau(   1) = (   0.5000500   0.2886463   2.8984475  )
         2           Mo  tau(   2) = (  -0.0000500   0.5773791   0.9661492  )
         3           S   tau(   3) = (   0.5000500   0.2886463   0.4676162  )
         4           S   tau(   4) = (  -0.0000500   0.5773791   2.3999145  )
         5           S   tau(   5) = (  -0.0000500   0.5773791   3.3969805  )
         6           S   tau(   6) = (   0.5000500   0.2886463   1.4646821  )

   Crystallographic axes

     site n.     atom                  positions (cryst. coord.)
         1           Mo  tau(   1) = (  0.6667000  0.3333000  0.7500000  )
         2           Mo  tau(   2) = (  0.3333000  0.6667000  0.2500000  )
         3           S   tau(   3) = (  0.6667000  0.3333000  0.1210000  )
         4           S   tau(   4) = (  0.3333000  0.6667000  0.6210000  )
         5           S   tau(   5) = (  0.3333000  0.6667000  0.8790000  )
         6           S   tau(   6) = (  0.6667000  0.3333000  0.3790000  )

     number of k points=    62  gaussian smearing, width (Ry)=  0.0020
                       cart. coord. in units 2pi/alat
        k(    1) = (   0.0000000   0.0000000   0.0000000), wk =   0.0100000
        k(    2) = (   0.0000000   0.0000000  -0.1293796), wk =   0.0100000
        k(    3) = (   0.0000000   0.1154701   0.0000000), wk =   0.0400000
        k(    4) = (   0.0000000   0.1154701  -0.1293796), wk =   0.0400000
        k(    5) = (   0.0000000   0.2309401   0.0000000), wk =   0.0400000
        k(    6) = (   0.0000000   0.2309401  -0.1293796), wk =   0.0400000
        k(    7) = (   0.0000000   0.3464102   0.0000000), wk =   0.0400000
        k(    8) = (   0.0000000   0.3464102  -0.1293796), wk =   0.0400000
        k(    9) = (   0.0000000   0.4618802   0.0000000), wk =   0.0400000
        k(   10) = (   0.0000000   0.4618802  -0.1293796), wk =   0.0400000
        k(   11) = (   0.0000000  -0.5773503   0.0000000), wk =   0.0200000
        k(   12) = (   0.0000000  -0.5773503  -0.1293796), wk =   0.0200000
        k(   13) = (   0.1000000   0.1732051   0.0000000), wk =   0.0200000
        k(   14) = (   0.1000000   0.1732051  -0.1293796), wk =   0.0200000
        k(   15) = (   0.1000000   0.2886751   0.0000000), wk =   0.0400000
        k(   16) = (   0.1000000   0.2886751  -0.1293796), wk =   0.0400000
        k(   17) = (   0.1000000   0.4041452   0.0000000), wk =   0.0400000
        k(   18) = (   0.1000000   0.4041452  -0.1293796), wk =   0.0400000
        k(   19) = (   0.1000000   0.5196152   0.0000000), wk =   0.0400000
        k(   20) = (   0.1000000   0.5196152  -0.1293796), wk =   0.0400000
        k(   21) = (   0.2000000   0.3464102   0.0000000), wk =   0.0200000
        k(   22) = (   0.2000000   0.3464102  -0.1293796), wk =   0.0200000
        k(   23) = (   0.2000000   0.4618802   0.0000000), wk =   0.0400000
        k(   24) = (   0.2000000   0.4618802  -0.1293796), wk =   0.0400000
        k(   25) = (   0.2000000   0.5773503   0.0000000), wk =   0.0400000
        k(   26) = (   0.2000000   0.5773503  -0.1293796), wk =   0.0400000
        k(   27) = (   0.3000000   0.5196152   0.0000000), wk =   0.0200000
        k(   28) = (   0.3000000   0.5196152  -0.1293796), wk =   0.0200000
        k(   29) = (   0.1000000  -0.0577350   0.0000000), wk =   0.0200000
        k(   30) = (   0.1000000  -0.0577350   0.1293796), wk =   0.0200000
        k(   31) = (   0.2000000  -0.1154701   0.0000000), wk =   0.0200000
        k(   32) = (   0.2000000  -0.1154701   0.1293796), wk =   0.0200000
        k(   33) = (   0.3000000  -0.1732051   0.0000000), wk =   0.0200000
        k(   34) = (   0.3000000  -0.1732051   0.1293796), wk =   0.0200000
        k(   35) = (   0.4000000  -0.2309401   0.0000000), wk =   0.0200000
        k(   36) = (   0.4000000  -0.2309401   0.1293796), wk =   0.0200000
        k(   37) = (  -0.5000000   0.2886751   0.0000000), wk =   0.0100000
        k(   38) = (  -0.5000000   0.2886751   0.1293796), wk =   0.0100000
        k(   39) = (  -0.1000000   0.1732051   0.0000000), wk =   0.0400000
        k(   40) = (  -0.1000000   0.1732051   0.1293796), wk =   0.0400000
        k(   41) = (  -0.1000000   0.2886751   0.0000000), wk =   0.0400000
        k(   42) = (   0.3000000  -0.0577350   0.0000000), wk =   0.0400000
        k(   43) = (  -0.1000000   0.2886751   0.1293796), wk =   0.0400000
        k(   44) = (   0.3000000  -0.0577350   0.1293796), wk =   0.0400000
        k(   45) = (  -0.1000000   0.4041452   0.0000000), wk =   0.0400000
        k(   46) = (   0.4000000  -0.1154701   0.0000000), wk =   0.0400000
        k(   47) = (  -0.1000000   0.4041452   0.1293796), wk =   0.0400000
        k(   48) = (   0.4000000  -0.1154701   0.1293796), wk =   0.0400000
        k(   49) = (  -0.1000000   0.5196152   0.0000000), wk =   0.0400000
        k(   50) = (   0.5000000  -0.1732051   0.0000000), wk =   0.0400000
        k(   51) = (  -0.1000000   0.5196152   0.1293796), wk =   0.0400000
        k(   52) = (   0.5000000  -0.1732051   0.1293796), wk =   0.0400000
        k(   53) = (  -0.2000000   0.3464102   0.0000000), wk =   0.0400000
        k(   54) = (  -0.2000000   0.3464102   0.1293796), wk =   0.0400000
        k(   55) = (  -0.2000000   0.4618802   0.0000000), wk =   0.0400000
        k(   56) = (   0.5000000  -0.0577350   0.0000000), wk =   0.0400000
        k(   57) = (  -0.2000000   0.4618802   0.1293796), wk =   0.0400000
        k(   58) = (   0.5000000  -0.0577350   0.1293796), wk =   0.0400000
        k(   59) = (   0.6000000  -0.1154701   0.0000000), wk =   0.0200000
        k(   60) = (   0.6000000  -0.1154701   0.1293796), wk =   0.0200000
        k(   61) = (  -0.3000000   0.5196152   0.0000000), wk =   0.0400000
[...]
        k(   30) = (   0.0986321  -0.0569453   0.1250324), wk =   0.0200000
        k(   31) = (   0.1972642  -0.1138906   0.0000000), wk =   0.0200000
        k(   32) = (   0.1972642  -0.1138906   0.1250324), wk =   0.0200000
        k(   33) = (   0.2958964  -0.1708358   0.0000000), wk =   0.0200000
        k(   34) = (   0.2958964  -0.1708358   0.1250324), wk =   0.0200000
        k(   35) = (   0.3945285  -0.2277811   0.0000000), wk =   0.0200000
        k(   36) = (   0.3945285  -0.2277811   0.1250324), wk =   0.0200000
        k(   37) = (  -0.4931606   0.2847264   0.0000000), wk =   0.0100000
        k(   38) = (  -0.4931606   0.2847264   0.1250324), wk =   0.0100000
        k(   39) = (  -0.0986318   0.1708364   0.0000000), wk =   0.0400000
        k(   40) = (  -0.0986318   0.1708364   0.1250324), wk =   0.0400000
        k(   41) = (  -0.0986315   0.2847275   0.0000000), wk =   0.0400000
        k(   42) = (   0.2958967  -0.0569448   0.0000000), wk =   0.0400000
        k(   43) = (  -0.0986315   0.2847275   0.1250324), wk =   0.0400000
        k(   44) = (   0.2958967  -0.0569448   0.1250324), wk =   0.0400000
        k(   45) = (  -0.0986312   0.3986185   0.0000000), wk =   0.0400000
        k(   46) = (   0.3945288  -0.1138900   0.0000000), wk =   0.0400000
        k(   47) = (  -0.0986312   0.3986185   0.1250324), wk =   0.0400000
        k(   48) = (   0.3945288  -0.1138900   0.1250324), wk =   0.0400000
        k(   49) = (  -0.0986309   0.5125096   0.0000000), wk =   0.0400000
        k(   50) = (   0.4931609  -0.1708353   0.0000000), wk =   0.0400000
        k(   51) = (  -0.0986309   0.5125096   0.1250324), wk =   0.0400000
        k(   52) = (   0.4931609  -0.1708353   0.1250324), wk =   0.0400000
        k(   53) = (  -0.1972636   0.3416727   0.0000000), wk =   0.0400000
        k(   54) = (  -0.1972636   0.3416727   0.1250324), wk =   0.0400000
        k(   55) = (  -0.1972633   0.4555638   0.0000000), wk =   0.0400000
        k(   56) = (   0.4931612  -0.0569442   0.0000000), wk =   0.0400000
        k(   57) = (  -0.1972633   0.4555638   0.1250324), wk =   0.0400000
        k(   58) = (   0.4931612  -0.0569442   0.1250324), wk =   0.0400000
        k(   59) = (   0.5917933  -0.1138895   0.0000000), wk =   0.0200000
        k(   60) = (   0.5917933  -0.1138895   0.1250324), wk =   0.0200000
        k(   61) = (  -0.2958954   0.5125091   0.0000000), wk =   0.0400000
        k(   62) = (  -0.2958954   0.5125091   0.1250324), wk =   0.0400000

                       cryst. coord.
        k(    1) = (   0.0000000   0.0000000   0.0000000), wk =   0.0100000
        k(    2) = (   0.0000000   0.0000000  -0.5000000), wk =   0.0100000
        k(    3) = (   0.0000000   0.1000000   0.0000000), wk =   0.0400000
        k(    4) = (   0.0000000   0.1000000  -0.5000000), wk =   0.0400000
        k(    5) = (   0.0000000   0.2000000   0.0000000), wk =   0.0400000
        k(    6) = (   0.0000000   0.2000000  -0.5000000), wk =   0.0400000
        k(    7) = (   0.0000000   0.3000000   0.0000000), wk =   0.0400000
        k(    8) = (   0.0000000   0.3000000  -0.5000000), wk =   0.0400000
        k(    9) = (   0.0000000   0.4000000   0.0000000), wk =   0.0400000
        k(   10) = (   0.0000000   0.4000000  -0.5000000), wk =   0.0400000
        k(   11) = (  -0.0000000  -0.5000000   0.0000000), wk =   0.0200000
        k(   12) = (  -0.0000000  -0.5000000  -0.5000000), wk =   0.0200000
        k(   13) = (   0.1000000   0.1000000   0.0000000), wk =   0.0200000
        k(   14) = (   0.1000000   0.1000000  -0.5000000), wk =   0.0200000
        k(   15) = (   0.1000000   0.2000000   0.0000000), wk =   0.0400000
        k(   16) = (   0.1000000   0.2000000  -0.5000000), wk =   0.0400000
        k(   17) = (   0.1000000   0.3000000   0.0000000), wk =   0.0400000
        k(   18) = (   0.1000000   0.3000000  -0.5000000), wk =   0.0400000
        k(   19) = (   0.1000000   0.4000000   0.0000000), wk =   0.0400000
        k(   20) = (   0.1000000   0.4000000  -0.5000000), wk =   0.0400000
        k(   21) = (   0.2000000   0.2000000   0.0000000), wk =   0.0200000
        k(   22) = (   0.2000000   0.2000000  -0.5000000), wk =   0.0200000
        k(   23) = (   0.2000000   0.3000000   0.0000000), wk =   0.0400000
        k(   24) = (   0.2000000   0.3000000  -0.5000000), wk =   0.0400000
        k(   25) = (   0.2000000   0.4000000   0.0000000), wk =   0.0400000
        k(   26) = (   0.2000000   0.4000000  -0.5000000), wk =   0.0400000
        k(   27) = (   0.3000000   0.3000000   0.0000000), wk =   0.0200000
        k(   28) = (   0.3000000   0.3000000  -0.5000000), wk =   0.0200000
        k(   29) = (   0.1000000  -0.1000000   0.0000000), wk =   0.0200000
        k(   30) = (   0.1000000  -0.1000000   0.5000000), wk =   0.0200000
        k(   31) = (   0.2000000  -0.2000000   0.0000000), wk =   0.0200000
        k(   32) = (   0.2000000  -0.2000000   0.5000000), wk =   0.0200000
        k(   33) = (   0.3000000  -0.3000000   0.0000000), wk =   0.0200000
        k(   34) = (   0.3000000  -0.3000000   0.5000000), wk =   0.0200000
        k(   35) = (   0.4000000  -0.4000000   0.0000000), wk =   0.0200000
        k(   36) = (   0.4000000  -0.4000000   0.5000000), wk =   0.0200000
        k(   37) = (  -0.5000000   0.5000000   0.0000000), wk =   0.0100000
        k(   38) = (  -0.5000000   0.5000000   0.5000000), wk =   0.0100000
        k(   39) = (  -0.1000000   0.2000000   0.0000000), wk =   0.0400000
        k(   40) = (  -0.1000000   0.2000000   0.5000000), wk =   0.0400000
        k(   41) = (  -0.1000000   0.3000000   0.0000000), wk =   0.0400000
        k(   42) = (   0.3000000  -0.2000000   0.0000000), wk =   0.0400000
        k(   43) = (  -0.1000000   0.3000000   0.5000000), wk =   0.0400000
        k(   44) = (   0.3000000  -0.2000000   0.5000000), wk =   0.0400000
        k(   45) = (  -0.1000000   0.4000000   0.0000000), wk =   0.0400000
        k(   46) = (   0.4000000  -0.3000000   0.0000000), wk =   0.0400000
        k(   47) = (  -0.1000000   0.4000000   0.5000000), wk =   0.0400000
        k(   48) = (   0.4000000  -0.3000000   0.5000000), wk =   0.0400000
        k(   49) = (  -0.1000000   0.5000000   0.0000000), wk =   0.0400000
        k(   50) = (   0.5000000  -0.4000000   0.0000000), wk =   0.0400000
        k(   51) = (  -0.1000000   0.5000000   0.5000000), wk =   0.0400000
        k(   52) = (   0.5000000  -0.4000000   0.5000000), wk =   0.0400000
        k(   53) = (  -0.2000000   0.4000000   0.0000000), wk =   0.0400000
        k(   54) = (  -0.2000000   0.4000000   0.5000000), wk =   0.0400000
        k(   55) = (  -0.2000000   0.5000000   0.0000000), wk =   0.0400000
        k(   56) = (   0.5000000  -0.3000000   0.0000000), wk =   0.0400000
        k(   57) = (  -0.2000000   0.5000000   0.5000000), wk =   0.0400000
        k(   58) = (   0.5000000  -0.3000000   0.5000000), wk =   0.0400000
        k(   59) = (   0.6000000  -0.4000000   0.0000000), wk =   0.0200000
        k(   60) = (   0.6000000  -0.4000000   0.5000000), wk =   0.0200000
        k(   61) = (  -0.3000000   0.6000000   0.0000000), wk =   0.0400000
        k(   62) = (  -0.3000000   0.6000000   0.5000000), wk =   0.0400000

     Initial potential from superposition of free atoms

     starting charge   51.99788, renormalised to   52.00000
     Starting wfcs are random

     Self-consistent Calculation

     iteration #  1     ecut=    50.00 Ry     beta= 0.50
     Davidson diagonalization with overlap
     c_bands:  5 eigenvalues not converged
     c_bands:  3 eigenvalues not converged
     c_bands:  5 eigenvalues not converged
     c_bands:  5 eigenvalues not converged
     c_bands:  5 eigenvalues not converged
     c_bands:  5 eigenvalues not converged
     c_bands:  4 eigenvalues not converged
     c_bands:  2 eigenvalues not converged
     c_bands:  5 eigenvalues not converged
     c_bands:  4 eigenvalues not converged
     c_bands:  5 eigenvalues not converged
     ethr =  1.00E-06,  avg # of iterations = 20.0

[...]

     total energy              =    -371.17270865 Ry
     Harris-Foulkes estimate   =    -371.17270869 Ry
     estimated scf accuracy    <       0.00000014 Ry

     iteration # 10     ecut=    50.00 Ry     beta= 0.50
     Davidson diagonalization with overlap
     ethr =  2.76E-10,  avg # of iterations =  2.6

     End of self-consistent calculation

[...]

          k = 0.5918-0.1139 0.1250 (  4386 PWs)   bands (ev):

[...]

          k =-0.2959 0.5125 0.1250 (  4376 PWs)   bands (ev):

   -50.7192 -50.7192 -25.0106 -25.0106 -24.9247 -24.9247 -24.8322 -24.8322
    -1.9379  -1.9379  -1.8532  -1.8532   4.6850   4.6850   5.1859   5.1859
     6.1959   6.1959   6.4495   6.4495   7.2042   7.2042   7.9935   7.9935
     9.9403   9.9403  11.9390  11.9390  13.0789  13.0789  13.5186

     occupation numbers
     1.0000   1.0000   1.0000   1.0000   1.0000   1.0000   1.0000   1.0000
     1.0000   1.0000   1.0000   1.0000   1.0000   1.0000   1.0000   1.0000
     1.0000   1.0000   1.0000   1.0000   1.0000   1.0000   1.0000   1.0000
     1.0000   1.0000   0.0000   0.0000   0.0000   0.0000   0.0000

     the Fermi energy is    10.9838 ev

!    total energy              =    -371.17270867 Ry
     Harris-Foulkes estimate   =    -371.17270867 Ry
     estimated scf accuracy    <          3.1E-10 Ry

     The total energy is the sum of the following terms:

     one-electron contribution =    -184.05149131 Ry
     hartree contribution      =     113.07085032 Ry
     xc contribution           =     -65.19705260 Ry
     ewald contribution        =    -234.89261600 Ry
     DFT-D3 Dispersion         =      -0.10239908 Ry
     smearing contrib. (-TS)   =      -0.00000000 Ry

     convergence has been achieved in  10 iterations

     Forces acting on atoms (cartesian axes, Ry/au):

     atom    1 type  1   force =     0.00000142   -0.00000082    0.00000000
     atom    2 type  1   force =    -0.00000142    0.00000082    0.00000000
     atom    3 type  2   force =     0.00000021   -0.00000012    0.00004330
     atom    4 type  2   force =    -0.00000021    0.00000012    0.00004330
     atom    5 type  2   force =    -0.00000021    0.00000012   -0.00004330
     atom    6 type  2   force =     0.00000021   -0.00000012   -0.00004330
     The non-local contrib.  to forces
     atom    1 type  1   force =    -0.00000042    0.00000024    0.00000000
     atom    2 type  1   force =     0.00000042   -0.00000024    0.00000000
     atom    3 type  2   force =     0.00000065   -0.00000037    0.27623858
     atom    4 type  2   force =    -0.00000065    0.00000037    0.27623858
     atom    5 type  2   force =    -0.00000065    0.00000037   -0.27623858
     atom    6 type  2   force =     0.00000065   -0.00000037   -0.27623858
     The ionic contribution  to forces
     atom    1 type  1   force =    -0.00004309    0.00002488    0.00000000
     atom    2 type  1   force =     0.00004309   -0.00002488   -0.00000000
     atom    3 type  2   force =    -0.00002482    0.00001433  -14.54373842
     atom    4 type  2   force =     0.00002482   -0.00001433  -14.54373842
     atom    5 type  2   force =     0.00002482   -0.00001433   14.54373842
     atom    6 type  2   force =    -0.00002482    0.00001433   14.54373842
     The local contribution  to forces
     atom    1 type  1   force =     0.00004497   -0.00002596    0.00000000
     atom    2 type  1   force =    -0.00004497    0.00002596    0.00000000
     atom    3 type  2   force =     0.00002432   -0.00001404   14.28187213
     atom    4 type  2   force =    -0.00002432    0.00001404   14.28187213
     atom    5 type  2   force =    -0.00002432    0.00001404  -14.28187213
     atom    6 type  2   force =     0.00002432   -0.00001404  -14.28187213
     The core correction contribution to forces
     atom    1 type  1   force =     0.00000000    0.00000000    0.00000000
     atom    2 type  1   force =     0.00000000    0.00000000    0.00000000
     atom    3 type  2   force =    -0.00000003    0.00000002   -0.01415641
     atom    4 type  2   force =     0.00000003   -0.00000002   -0.01415641
     atom    5 type  2   force =     0.00000003   -0.00000002    0.01415641
     atom    6 type  2   force =    -0.00000003    0.00000002    0.01415641
     The Hubbard contrib.    to forces
     atom    1 type  1   force =     0.00000000    0.00000000    0.00000000
     atom    2 type  1   force =     0.00000000    0.00000000    0.00000000
     atom    3 type  2   force =     0.00000000    0.00000000    0.00000000
     atom    4 type  2   force =     0.00000000    0.00000000    0.00000000
     atom    5 type  2   force =     0.00000000    0.00000000    0.00000000
     atom    6 type  2   force =     0.00000000    0.00000000    0.00000000
     The SCF correction term to forces
     atom    1 type  1   force =    -0.00000010    0.00000006    0.00000000
     atom    2 type  1   force =     0.00000010   -0.00000006    0.00000000
     atom    3 type  2   force =     0.00000007   -0.00000004    0.00002506
     atom    4 type  2   force =    -0.00000007    0.00000004    0.00002506
     atom    5 type  2   force =    -0.00000007    0.00000004   -0.00002506
     atom    6 type  2   force =     0.00000007   -0.00000004   -0.00002506

     DFT-D3 dispersion contribution to forces:
     atom    1 type  1   force =     0.00000007   -0.00000004   -0.00000000
     atom    2 type  1   force =    -0.00000007    0.00000004    0.00000000
     atom    3 type  2   force =     0.00000001   -0.00000000   -0.00019764
     atom    4 type  2   force =    -0.00000001    0.00000000   -0.00019764
     atom    5 type  2   force =    -0.00000001    0.00000000    0.00019764
     atom    6 type  2   force =     0.00000001   -0.00000000    0.00019764

     Total force =     0.000087     Total SCF correction =     0.000050

     DFT-D3 dispersion Force =     0.000395
     SCF correction compared to forces is large: reduce conv_thr to get better values

     Computing stress (Cartesian axis) and pressure

          total   stress  (Ry/bohr**3)                   (kbar)     P=   -0.11
  -0.00000053   0.00000003   0.00000000         -0.08      0.00      0.00
   0.00000003  -0.00000049   0.00000000          0.00     -0.07      0.00
   0.00000000   0.00000000  -0.00000130          0.00      0.00     -0.19

     kinetic stress (kbar)  15502.82      0.01      0.00
                                0.01  15502.83      0.00
                                0.00      0.00  15625.78

     local   stress (kbar) -30559.50     -0.05      0.00
                               -0.05 -30559.56      0.00
                                0.00      0.00  25131.23

     nonloc. stress (kbar)   7984.80     -0.00      0.00
                               -0.00   7984.80      0.00
                                0.00      0.00   8015.75

     hartree stress (kbar)  15943.49      0.02      0.00
                                0.02  15943.51     -0.00
                                0.00     -0.00  -9177.38

     exc-cor stress (kbar)   -235.91      0.00     -0.00
                                0.00   -235.91     -0.00
                               -0.00     -0.00   -234.02

     corecor stress (kbar)  -3130.05      0.00      0.00
                                0.00  -3130.05      0.00
                                0.00      0.00  -3135.76

     ewald   stress (kbar)  -5486.13      0.03     -0.00
                                0.03  -5486.10     -0.00
                               -0.00     -0.00 -36204.58

     hubbard stress (kbar)      0.00      0.00      0.00
                                0.00      0.00      0.00
                                0.00      0.00      0.00

     london  stress (kbar)      0.00      0.00      0.00
                                0.00      0.00      0.00
                                0.00      0.00      0.00

     DFT-D3  stress (kbar)    -19.60      0.00     -0.00
                                0.00    -19.60     -0.00
                               -0.00     -0.00    -21.21

     XDM     stress (kbar)      0.00      0.00      0.00
                                0.00      0.00      0.00
                                0.00      0.00      0.00

     dft-nl  stress (kbar)      0.00      0.00      0.00
                                0.00      0.00      0.00
                                0.00      0.00      0.00

     TS-vdW  stress (kbar)      0.00      0.00      0.00
                                0.00      0.00      0.00
                                0.00      0.00      0.00

     Writing output data file VLAB.save/

     General routines

     Parallel routines

   This run was terminated on:   9:47:20  20Nov2023

   JOB DONE.